100
400
318
315
305
296
295
290
288
287
284
283
279
278
274
271
269
262
260
256
251
250
249
249
249
248
247
245
244
243
241
241
239
238
238
236
229
223
221
220
218
215
212
210
208
208
203
202
200
192
192
192
191
190
190
188
187
184
184
183
182
182
179
175
168
168
167
166
164
164
161
161
159
156
154
138
134
134
133
132
131
129
127
126
124
123
122
116
116
101
100
99
99
99
97
97
96
95
90
85
83
82
